;(set-option :produce-unsat-cores true )
(set-logic ALL_SUPPORTED )
(declare-sort A$ 0 )
(declare-sort B$ 0 )
(declare-sort Nat$ 0 )
(declare-sort A_set$ 0 )
(declare-sort B_set$ 0 )
(declare-sort A_a_fun$ 0 )
(declare-sort A_b_fun$ 0 )
(declare-sort B_a_fun$ 0 )
(declare-sort B_b_fun$ 0 )
(declare-sort A_bool_fun$ 0 )
(declare-sort B_bool_fun$ 0 )
(declare-sort A_a_a_tllist_fun$ 0 )
(declare-sort A_a_b_tllist_fun$ 0 )
(declare-sort A_a_bool_fun_fun$ 0 )
(declare-sort A_a_tllist_a_fun$ 0 )
(declare-sort A_b_bool_fun_fun$ 0 )
(declare-sort A_b_tllist_b_fun$ 0 )
(declare-sort B_a_a_tllist_fun$ 0 )
(declare-sort B_a_b_tllist_fun$ 0 )
(declare-sort B_a_bool_fun_fun$ 0 )
(declare-sort B_b_bool_fun_fun$ 0 )
(declare-sort A_a_tllist_bool_fun$ 0 )
(declare-sort A_b_tllist_bool_fun$ 0 )
(declare-sort A_a_tllist_a_a_tllist_bool_fun_fun$ 0 )
(declare-sort A_b_tllist_a_b_tllist_bool_fun_fun$ 0 )
(declare-codatatypes ()((A_b_tllist$ (tNil$ (terminal$ B$ ))(tCons$ (thd$ A$ )(ttl$ A_b_tllist$ )))(A_llist$ (lNil$ )(lCons$ (lhd$ A$ )(ltl$ A_llist$ )))(B_b_tllist$ (tNil$a (terminal$a B$ ))(tCons$a (thd$a B$ )(ttl$a B_b_tllist$ )))(B_llist$ (lNil$a )(lCons$a (lhd$a B$ )(ltl$a B_llist$ )))(B_a_tllist$ (tNil$b (terminal$b A$ ))(tCons$b (thd$b B$ )(ttl$b B_a_tllist$ )))(A_a_tllist$ (tNil$c (terminal$c A$ ))(tCons$c (thd$c A$ )(ttl$c A_a_tllist$ )))))
(declare-sort Nat_option$ 0)
(declare-sort Enat$ 0)
(declare-fun none$ ()Nat_option$)
(declare-fun the$ (Nat_option$)Nat$)
(declare-fun some$ (Nat$ )Nat_option$)
(declare-fun rep_enat$ (Enat$)Nat_option$)
(declare-fun abs_enat$ (Nat_option$ )Enat$)
(declare-fun p$ ()A_a_bool_fun_fun$ )
(declare-fun q$ ()B_b_bool_fun_fun$ )
(declare-fun uu$ ()A_a_bool_fun_fun$ )
(declare-fun xs$ ()A_b_tllist$ )
(declare-fun uua$ ()A_a_tllist_a_a_tllist_bool_fun_fun$ )
(declare-fun uub$ ()B_b_bool_fun_fun$ )
(declare-fun uuc$ ()A_b_tllist_a_b_tllist_bool_fun_fun$ )
(declare-fun uud$ ()A_a_tllist_a_fun$ )
(declare-fun uue$ ()A_b_tllist_b_fun$ )
(declare-fun lset$ (B_llist$ )B_set$ )
(declare-fun tmap$ (A_a_fun$ A_b_fun$ A_a_tllist$ )A_b_tllist$ )
(declare-fun tset$ (A_b_tllist$ )A_set$ )
(declare-fun lset$a (A_llist$ )A_set$ )
(declare-fun tmap$a (A_a_fun$ B_a_fun$ A_b_tllist$ )A_a_tllist$ )
(declare-fun tmap$b (A_a_fun$ A_a_fun$ A_a_tllist$ )A_a_tllist$ )
(declare-fun tmap$c (A_a_fun$ B_b_fun$ A_b_tllist$ )A_b_tllist$ )
(declare-fun tset$a (B_b_tllist$ )B_set$ )
(declare-fun tset$b (B_a_tllist$ )B_set$ )
(declare-fun tset$c (A_a_tllist$ )A_set$ )
(declare-fun member$ (A$ A_set$ )Bool )
(declare-fun fun_app$ (A_b_tllist_b_fun$ A_b_tllist$ )B$ )
(declare-fun lfinite$ (A_llist$ )Bool )
(declare-fun member$a (B$ B_set$ )Bool )
(declare-fun tappend$ (A_b_tllist$ B_a_a_tllist_fun$ )A_a_tllist$ )
(declare-fun tlength$ (B_a_tllist$ )Enat$ )
(declare-fun fun_app$a (A_a_tllist_a_fun$ A_a_tllist$ )A$ )
(declare-fun fun_app$b (A_b_tllist_bool_fun$ A_b_tllist$ )Bool )
(declare-fun fun_app$c (A_b_tllist_a_b_tllist_bool_fun_fun$ A_b_tllist$ )A_b_tllist_bool_fun$ )
(declare-fun fun_app$d (A_a_tllist_bool_fun$ A_a_tllist$ )Bool )
(declare-fun fun_app$e (A_a_tllist_a_a_tllist_bool_fun_fun$ A_a_tllist$ )A_a_tllist_bool_fun$ )
(declare-fun fun_app$f (B_bool_fun$ B$ )Bool )
(declare-fun fun_app$g (B_b_bool_fun_fun$ B$ )B_bool_fun$ )
(declare-fun fun_app$h (A_bool_fun$ A$ )Bool )
(declare-fun fun_app$i (A_a_bool_fun_fun$ A$ )A_bool_fun$ )
(declare-fun fun_app$j (B_a_bool_fun_fun$ B$ )A_bool_fun$ )
(declare-fun fun_app$k (A_b_bool_fun_fun$ A$ )B_bool_fun$ )
(declare-fun fun_app$l (B_a_a_tllist_fun$ B$ )A_a_tllist$ )
(declare-fun fun_app$m (A_a_b_tllist_fun$ A$ )A_b_tllist$ )
(declare-fun fun_app$n (A_a_a_tllist_fun$ A$ )A_a_tllist$ )
(declare-fun fun_app$o (B_a_b_tllist_fun$ B$ )A_b_tllist$ )
(declare-fun fun_app$p (A_b_fun$ A$ )B$ )
(declare-fun fun_app$q (B_a_fun$ B$ )A$ )
(declare-fun fun_app$r (A_a_fun$ A$ )A$ )
(declare-fun fun_app$s (B_b_fun$ B$ )B$ )
(declare-fun lappendt$ (A_llist$ A_a_tllist$ )A_a_tllist$ )
(declare-fun lfinite$a (B_llist$ )Bool )
(declare-fun tappend$a (A_a_tllist$ A_a_b_tllist_fun$ )A_b_tllist$ )
(declare-fun tappend$b (A_a_tllist$ A_a_a_tllist_fun$ )A_a_tllist$ )
(declare-fun tappend$c (A_b_tllist$ B_a_b_tllist_fun$ )A_b_tllist$ )
(declare-fun tlength$a (A_a_tllist$ )Enat$ )
(declare-fun tlength$b (A_b_tllist$ )Enat$ )
(declare-fun tlength$c (B_b_tllist$ )Enat$ )
(declare-fun lappendt$a (A_llist$ A_b_tllist$ )A_b_tllist$ )
(declare-fun terminal0$ ()A_a_tllist_a_fun$ )
(declare-fun undefined$ ()A$ )
(declare-fun terminal0$a ()A_b_tllist_b_fun$ )
(declare-fun undefined$a ()B$ )
(declare-fun set2_tllist$ (A_a_tllist$ )A_set$ )
(declare-fun tllist_all2$ (A_a_bool_fun_fun$ B_b_bool_fun_fun$ )A_b_tllist_a_b_tllist_bool_fun_fun$ )
(declare-fun set2_tllist$a (A_b_tllist$ )B_set$ )
(declare-fun set2_tllist$b (B_a_tllist$ )A_set$ )
(declare-fun set2_tllist$c (B_b_tllist$ )B_set$ )
(declare-fun tllist_all2$a (B_b_bool_fun_fun$ B_b_bool_fun_fun$ B_b_tllist$ B_b_tllist$ )Bool )
(declare-fun tllist_all2$b (B_b_bool_fun_fun$ A_a_bool_fun_fun$ B_a_tllist$ B_a_tllist$ )Bool )
(declare-fun tllist_all2$c (A_a_bool_fun_fun$ A_a_bool_fun_fun$ )A_a_tllist_a_a_tllist_bool_fun_fun$ )
(declare-fun tllist_all2$d (B_a_bool_fun_fun$ A_a_bool_fun_fun$ B_a_tllist$ A_a_tllist$ )Bool )
(declare-fun tllist_all2$e (A_b_bool_fun_fun$ B_b_bool_fun_fun$ A_b_tllist$ B_b_tllist$ )Bool )
(declare-fun tllist_all2$f (A_b_bool_fun_fun$ B_a_bool_fun_fun$ A_b_tllist$ B_a_tllist$ )Bool )
(declare-fun tllist_all2$g (A_b_bool_fun_fun$ A_b_bool_fun_fun$ A_a_tllist$ B_b_tllist$ )Bool )
(declare-fun tllist_all2$h (A_b_bool_fun_fun$ A_a_bool_fun_fun$ A_a_tllist$ B_a_tllist$ )Bool )
(declare-fun tllist_all2$i (A_a_bool_fun_fun$ B_a_bool_fun_fun$ A_b_tllist$ A_a_tllist$ )Bool )
(declare-fun tllist_all2$j (A_a_bool_fun_fun$ A_b_bool_fun_fun$ A_a_tllist$ A_b_tllist$ )Bool )
(declare-fun tllist_all2$k (B_b_bool_fun_fun$ A_b_bool_fun_fun$ B_a_tllist$ B_b_tllist$ )Bool )
(declare-fun tllist_all2$l (B_b_bool_fun_fun$ B_a_bool_fun_fun$ B_b_tllist$ B_a_tllist$ )Bool )
(declare-fun tllist_all2$m (B_a_bool_fun_fun$ A_b_bool_fun_fun$ B_a_tllist$ A_b_tllist$ )Bool )
(declare-fun tllist_all2$n (B_a_bool_fun_fun$ B_b_bool_fun_fun$ B_b_tllist$ A_b_tllist$ )Bool )
(declare-fun llist_of_tllist$ (A_b_tllist$ )A_llist$ )
(declare-fun tllist_of_llist$ (A$ A_llist$ )A_a_tllist$ )
(declare-fun llist_of_tllist$a (B_b_tllist$ )B_llist$ )
(declare-fun llist_of_tllist$b (B_a_tllist$ )B_llist$ )
(declare-fun llist_of_tllist$c (A_a_tllist$ )A_llist$ )
(declare-fun tllist_of_llist$a (B$ A_llist$ )A_b_tllist$ )
(assert (! (forall ((?v0 A_b_tllist$ ))(! (= (fun_app$ uue$ ?v0 )(terminal$ ?v0 )):pattern ((fun_app$ uue$ ?v0 )))):named a0 ))
(assert (! (forall ((?v0 A_a_tllist$ ))(! (= (fun_app$a uud$ ?v0 )(terminal$c ?v0 )):pattern ((fun_app$a uud$ ?v0 )))):named a1 ))
(assert (! (forall ((?v0 A_b_tllist$ )(?v1 A_b_tllist$ ))(! (= (fun_app$b (fun_app$c uuc$ ?v0 )?v1 )(= ?v0 ?v1 )):pattern ((fun_app$b (fun_app$c uuc$ ?v0 )?v1 )))):named a2 ))
(assert (! (forall ((?v0 A_a_tllist$ )(?v1 A_a_tllist$ ))(! (= (fun_app$d (fun_app$e uua$ ?v0 )?v1 )(= ?v0 ?v1 )):pattern ((fun_app$d (fun_app$e uua$ ?v0 )?v1 )))):named a3 ))
(assert (! (forall ((?v0 B$ )(?v1 B$ ))(! (= (fun_app$f (fun_app$g uub$ ?v0 )?v1 )(= ?v0 ?v1 )):pattern ((fun_app$f (fun_app$g uub$ ?v0 )?v1 )))):named a4 ))
(assert (! (forall ((?v0 A$ )(?v1 A$ ))(! (= (fun_app$h (fun_app$i uu$ ?v0 )?v1 )(= ?v0 ?v1 )):pattern ((fun_app$h (fun_app$i uu$ ?v0 )?v1 )))):named a5 ))
(assert (! (not (fun_app$b (fun_app$c (tllist_all2$ p$ q$ )xs$ )xs$ )):named a6 ))
(assert (! (forall ((?v0 A$ ))(=> (member$ ?v0 (tset$ xs$ ))(fun_app$h (fun_app$i p$ ?v0 )?v0 ))):named a7 ))
(assert (! (=> (lfinite$ (llist_of_tllist$ xs$ ))(fun_app$f (fun_app$g q$ (terminal$ xs$ ))(terminal$ xs$ ))):named a8 ))
(assert (! (forall ((?v0 B_b_bool_fun_fun$ )(?v1 B_b_bool_fun_fun$ )(?v2 B_b_tllist$ ))(= (tllist_all2$a ?v0 ?v1 ?v2 ?v2 )(and (forall ((?v3 B$ ))(=> (member$a ?v3 (tset$a ?v2 ))(fun_app$f (fun_app$g ?v0 ?v3 )?v3 )))(=> (lfinite$a (llist_of_tllist$a ?v2 ))(fun_app$f (fun_app$g ?v1 (terminal$a ?v2 ))(terminal$a ?v2 )))))):named a9 ))
(assert (! (forall ((?v0 B_b_bool_fun_fun$ )(?v1 A_a_bool_fun_fun$ )(?v2 B_a_tllist$ ))(= (tllist_all2$b ?v0 ?v1 ?v2 ?v2 )(and (forall ((?v3 B$ ))(=> (member$a ?v3 (tset$b ?v2 ))(fun_app$f (fun_app$g ?v0 ?v3 )?v3 )))(=> (lfinite$a (llist_of_tllist$b ?v2 ))(fun_app$h (fun_app$i ?v1 (terminal$b ?v2 ))(terminal$b ?v2 )))))):named a10 ))
(assert (! (forall ((?v0 A_a_bool_fun_fun$ )(?v1 A_a_bool_fun_fun$ )(?v2 A_a_tllist$ ))(= (fun_app$d (fun_app$e (tllist_all2$c ?v0 ?v1 )?v2 )?v2 )(and (forall ((?v3 A$ ))(=> (member$ ?v3 (tset$c ?v2 ))(fun_app$h (fun_app$i ?v0 ?v3 )?v3 )))(=> (lfinite$ (llist_of_tllist$c ?v2 ))(fun_app$h (fun_app$i ?v1 (terminal$c ?v2 ))(terminal$c ?v2 )))))):named a11 ))
(assert (! (forall ((?v0 A_a_bool_fun_fun$ )(?v1 B_b_bool_fun_fun$ )(?v2 A_b_tllist$ ))(= (fun_app$b (fun_app$c (tllist_all2$ ?v0 ?v1 )?v2 )?v2 )(and (forall ((?v3 A$ ))(=> (member$ ?v3 (tset$ ?v2 ))(fun_app$h (fun_app$i ?v0 ?v3 )?v3 )))(=> (lfinite$ (llist_of_tllist$ ?v2 ))(fun_app$f (fun_app$g ?v1 (terminal$ ?v2 ))(terminal$ ?v2 )))))):named a12 ))
(assert (! (= (tllist_all2$c uu$ uu$ )uua$ ):named a13 ))
(assert (! (= (tllist_all2$ uu$ uub$ )uuc$ ):named a14 ))
(assert (! (forall ((?v0 B_a_bool_fun_fun$ )(?v1 A_a_bool_fun_fun$ )(?v2 B_a_tllist$ )(?v3 A_a_tllist$ )(?v4 B_a_bool_fun_fun$ )(?v5 A_a_bool_fun_fun$ ))(=> (and (tllist_all2$d ?v0 ?v1 ?v2 ?v3 )(and (forall ((?v6 B$ )(?v7 A$ ))(=> (fun_app$h (fun_app$j ?v0 ?v6 )?v7 )(fun_app$h (fun_app$j ?v4 ?v6 )?v7 )))(forall ((?v6 A$ )(?v7 A$ ))(=> (fun_app$h (fun_app$i ?v1 ?v6 )?v7 )(fun_app$h (fun_app$i ?v5 ?v6 )?v7 )))))(tllist_all2$d ?v4 ?v5 ?v2 ?v3 ))):named a15 ))
(assert (! (forall ((?v0 A_b_bool_fun_fun$ )(?v1 B_b_bool_fun_fun$ )(?v2 A_b_tllist$ )(?v3 B_b_tllist$ )(?v4 A_b_bool_fun_fun$ )(?v5 B_b_bool_fun_fun$ ))(=> (and (tllist_all2$e ?v0 ?v1 ?v2 ?v3 )(and (forall ((?v6 A$ )(?v7 B$ ))(=> (fun_app$f (fun_app$k ?v0 ?v6 )?v7 )(fun_app$f (fun_app$k ?v4 ?v6 )?v7 )))(forall ((?v6 B$ )(?v7 B$ ))(=> (fun_app$f (fun_app$g ?v1 ?v6 )?v7 )(fun_app$f (fun_app$g ?v5 ?v6 )?v7 )))))(tllist_all2$e ?v4 ?v5 ?v2 ?v3 ))):named a16 ))
(assert (! (forall ((?v0 A_b_bool_fun_fun$ )(?v1 B_a_bool_fun_fun$ )(?v2 A_b_tllist$ )(?v3 B_a_tllist$ )(?v4 A_b_bool_fun_fun$ )(?v5 B_a_bool_fun_fun$ ))(=> (and (tllist_all2$f ?v0 ?v1 ?v2 ?v3 )(and (forall ((?v6 A$ )(?v7 B$ ))(=> (fun_app$f (fun_app$k ?v0 ?v6 )?v7 )(fun_app$f (fun_app$k ?v4 ?v6 )?v7 )))(forall ((?v6 B$ )(?v7 A$ ))(=> (fun_app$h (fun_app$j ?v1 ?v6 )?v7 )(fun_app$h (fun_app$j ?v5 ?v6 )?v7 )))))(tllist_all2$f ?v4 ?v5 ?v2 ?v3 ))):named a17 ))
(assert (! (forall ((?v0 A_b_bool_fun_fun$ )(?v1 A_b_bool_fun_fun$ )(?v2 A_a_tllist$ )(?v3 B_b_tllist$ )(?v4 A_b_bool_fun_fun$ )(?v5 A_b_bool_fun_fun$ ))(=> (and (tllist_all2$g ?v0 ?v1 ?v2 ?v3 )(and (forall ((?v6 A$ )(?v7 B$ ))(=> (fun_app$f (fun_app$k ?v0 ?v6 )?v7 )(fun_app$f (fun_app$k ?v4 ?v6 )?v7 )))(forall ((?v6 A$ )(?v7 B$ ))(=> (fun_app$f (fun_app$k ?v1 ?v6 )?v7 )(fun_app$f (fun_app$k ?v5 ?v6 )?v7 )))))(tllist_all2$g ?v4 ?v5 ?v2 ?v3 ))):named a18 ))
(assert (! (forall ((?v0 A_b_bool_fun_fun$ )(?v1 A_a_bool_fun_fun$ )(?v2 A_a_tllist$ )(?v3 B_a_tllist$ )(?v4 A_b_bool_fun_fun$ )(?v5 A_a_bool_fun_fun$ ))(=> (and (tllist_all2$h ?v0 ?v1 ?v2 ?v3 )(and (forall ((?v6 A$ )(?v7 B$ ))(=> (fun_app$f (fun_app$k ?v0 ?v6 )?v7 )(fun_app$f (fun_app$k ?v4 ?v6 )?v7 )))(forall ((?v6 A$ )(?v7 A$ ))(=> (fun_app$h (fun_app$i ?v1 ?v6 )?v7 )(fun_app$h (fun_app$i ?v5 ?v6 )?v7 )))))(tllist_all2$h ?v4 ?v5 ?v2 ?v3 ))):named a19 ))
(assert (! (forall ((?v0 A_a_bool_fun_fun$ )(?v1 B_a_bool_fun_fun$ )(?v2 A_b_tllist$ )(?v3 A_a_tllist$ )(?v4 A_a_bool_fun_fun$ )(?v5 B_a_bool_fun_fun$ ))(=> (and (tllist_all2$i ?v0 ?v1 ?v2 ?v3 )(and (forall ((?v6 A$ )(?v7 A$ ))(=> (fun_app$h (fun_app$i ?v0 ?v6 )?v7 )(fun_app$h (fun_app$i ?v4 ?v6 )?v7 )))(forall ((?v6 B$ )(?v7 A$ ))(=> (fun_app$h (fun_app$j ?v1 ?v6 )?v7 )(fun_app$h (fun_app$j ?v5 ?v6 )?v7 )))))(tllist_all2$i ?v4 ?v5 ?v2 ?v3 ))):named a20 ))
(assert (! (forall ((?v0 A_a_bool_fun_fun$ )(?v1 A_b_bool_fun_fun$ )(?v2 A_a_tllist$ )(?v3 A_b_tllist$ )(?v4 A_a_bool_fun_fun$ )(?v5 A_b_bool_fun_fun$ ))(=> (and (tllist_all2$j ?v0 ?v1 ?v2 ?v3 )(and (forall ((?v6 A$ )(?v7 A$ ))(=> (fun_app$h (fun_app$i ?v0 ?v6 )?v7 )(fun_app$h (fun_app$i ?v4 ?v6 )?v7 )))(forall ((?v6 A$ )(?v7 B$ ))(=> (fun_app$f (fun_app$k ?v1 ?v6 )?v7 )(fun_app$f (fun_app$k ?v5 ?v6 )?v7 )))))(tllist_all2$j ?v4 ?v5 ?v2 ?v3 ))):named a21 ))
(assert (! (forall ((?v0 A_a_bool_fun_fun$ )(?v1 A_a_bool_fun_fun$ )(?v2 A_a_tllist$ )(?v3 A_a_tllist$ )(?v4 A_a_bool_fun_fun$ )(?v5 A_a_bool_fun_fun$ ))(=> (and (fun_app$d (fun_app$e (tllist_all2$c ?v0 ?v1 )?v2 )?v3 )(and (forall ((?v6 A$ )(?v7 A$ ))(=> (fun_app$h (fun_app$i ?v0 ?v6 )?v7 )(fun_app$h (fun_app$i ?v4 ?v6 )?v7 )))(forall ((?v6 A$ )(?v7 A$ ))(=> (fun_app$h (fun_app$i ?v1 ?v6 )?v7 )(fun_app$h (fun_app$i ?v5 ?v6 )?v7 )))))(fun_app$d (fun_app$e (tllist_all2$c ?v4 ?v5 )?v2 )?v3 ))):named a22 ))
(assert (! (forall ((?v0 A_a_bool_fun_fun$ )(?v1 B_b_bool_fun_fun$ )(?v2 A_b_tllist$ )(?v3 A_b_tllist$ )(?v4 A_a_bool_fun_fun$ )(?v5 B_b_bool_fun_fun$ ))(=> (and (fun_app$b (fun_app$c (tllist_all2$ ?v0 ?v1 )?v2 )?v3 )(and (forall ((?v6 A$ )(?v7 A$ ))(=> (fun_app$h (fun_app$i ?v0 ?v6 )?v7 )(fun_app$h (fun_app$i ?v4 ?v6 )?v7 )))(forall ((?v6 B$ )(?v7 B$ ))(=> (fun_app$f (fun_app$g ?v1 ?v6 )?v7 )(fun_app$f (fun_app$g ?v5 ?v6 )?v7 )))))(fun_app$b (fun_app$c (tllist_all2$ ?v4 ?v5 )?v2 )?v3 ))):named a23 ))
(assert (! (forall ((?v0 B_a_bool_fun_fun$ )(?v1 A_a_bool_fun_fun$ )(?v2 B_a_tllist$ )(?v3 A_a_tllist$ ))(=> (and (tllist_all2$d ?v0 ?v1 ?v2 ?v3 )(lfinite$ (llist_of_tllist$c ?v3 )))(fun_app$h (fun_app$i ?v1 (terminal$b ?v2 ))(terminal$c ?v3 )))):named a24 ))
(assert (! (forall ((?v0 A_b_bool_fun_fun$ )(?v1 B_b_bool_fun_fun$ )(?v2 A_b_tllist$ )(?v3 B_b_tllist$ ))(=> (and (tllist_all2$e ?v0 ?v1 ?v2 ?v3 )(lfinite$a (llist_of_tllist$a ?v3 )))(fun_app$f (fun_app$g ?v1 (terminal$ ?v2 ))(terminal$a ?v3 )))):named a25 ))
(assert (! (forall ((?v0 A_b_bool_fun_fun$ )(?v1 B_a_bool_fun_fun$ )(?v2 A_b_tllist$ )(?v3 B_a_tllist$ ))(=> (and (tllist_all2$f ?v0 ?v1 ?v2 ?v3 )(lfinite$a (llist_of_tllist$b ?v3 )))(fun_app$h (fun_app$j ?v1 (terminal$ ?v2 ))(terminal$b ?v3 )))):named a26 ))
(assert (! (forall ((?v0 A_b_bool_fun_fun$ )(?v1 A_b_bool_fun_fun$ )(?v2 A_a_tllist$ )(?v3 B_b_tllist$ ))(=> (and (tllist_all2$g ?v0 ?v1 ?v2 ?v3 )(lfinite$a (llist_of_tllist$a ?v3 )))(fun_app$f (fun_app$k ?v1 (terminal$c ?v2 ))(terminal$a ?v3 )))):named a27 ))
(assert (! (forall ((?v0 A_b_bool_fun_fun$ )(?v1 A_a_bool_fun_fun$ )(?v2 A_a_tllist$ )(?v3 B_a_tllist$ ))(=> (and (tllist_all2$h ?v0 ?v1 ?v2 ?v3 )(lfinite$a (llist_of_tllist$b ?v3 )))(fun_app$h (fun_app$i ?v1 (terminal$c ?v2 ))(terminal$b ?v3 )))):named a28 ))
(assert (! (forall ((?v0 A_a_bool_fun_fun$ )(?v1 B_a_bool_fun_fun$ )(?v2 A_b_tllist$ )(?v3 A_a_tllist$ ))(=> (and (tllist_all2$i ?v0 ?v1 ?v2 ?v3 )(lfinite$ (llist_of_tllist$c ?v3 )))(fun_app$h (fun_app$j ?v1 (terminal$ ?v2 ))(terminal$c ?v3 )))):named a29 ))
(assert (! (forall ((?v0 A_a_bool_fun_fun$ )(?v1 A_b_bool_fun_fun$ )(?v2 A_a_tllist$ )(?v3 A_b_tllist$ ))(=> (and (tllist_all2$j ?v0 ?v1 ?v2 ?v3 )(lfinite$ (llist_of_tllist$ ?v3 )))(fun_app$f (fun_app$k ?v1 (terminal$c ?v2 ))(terminal$ ?v3 )))):named a30 ))
(assert (! (forall ((?v0 A_a_bool_fun_fun$ )(?v1 A_a_bool_fun_fun$ )(?v2 A_a_tllist$ )(?v3 A_a_tllist$ ))(=> (and (fun_app$d (fun_app$e (tllist_all2$c ?v0 ?v1 )?v2 )?v3 )(lfinite$ (llist_of_tllist$c ?v3 )))(fun_app$h (fun_app$i ?v1 (terminal$c ?v2 ))(terminal$c ?v3 )))):named a31 ))
(assert (! (forall ((?v0 A_a_bool_fun_fun$ )(?v1 B_b_bool_fun_fun$ )(?v2 A_b_tllist$ )(?v3 A_b_tllist$ ))(=> (and (fun_app$b (fun_app$c (tllist_all2$ ?v0 ?v1 )?v2 )?v3 )(lfinite$ (llist_of_tllist$ ?v3 )))(fun_app$f (fun_app$g ?v1 (terminal$ ?v2 ))(terminal$ ?v3 )))):named a32 ))
(assert (! (forall ((?v0 B_a_bool_fun_fun$ )(?v1 A_a_bool_fun_fun$ )(?v2 B_a_tllist$ )(?v3 A_a_tllist$ ))(=> (and (tllist_all2$d ?v0 ?v1 ?v2 ?v3 )(lfinite$a (llist_of_tllist$b ?v2 )))(fun_app$h (fun_app$i ?v1 (terminal$b ?v2 ))(terminal$c ?v3 )))):named a33 ))
(assert (! (forall ((?v0 A_b_bool_fun_fun$ )(?v1 B_b_bool_fun_fun$ )(?v2 A_b_tllist$ )(?v3 B_b_tllist$ ))(=> (and (tllist_all2$e ?v0 ?v1 ?v2 ?v3 )(lfinite$ (llist_of_tllist$ ?v2 )))(fun_app$f (fun_app$g ?v1 (terminal$ ?v2 ))(terminal$a ?v3 )))):named a34 ))
(assert (! (forall ((?v0 A_b_bool_fun_fun$ )(?v1 B_a_bool_fun_fun$ )(?v2 A_b_tllist$ )(?v3 B_a_tllist$ ))(=> (and (tllist_all2$f ?v0 ?v1 ?v2 ?v3 )(lfinite$ (llist_of_tllist$ ?v2 )))(fun_app$h (fun_app$j ?v1 (terminal$ ?v2 ))(terminal$b ?v3 )))):named a35 ))
(assert (! (forall ((?v0 A_b_bool_fun_fun$ )(?v1 A_b_bool_fun_fun$ )(?v2 A_a_tllist$ )(?v3 B_b_tllist$ ))(=> (and (tllist_all2$g ?v0 ?v1 ?v2 ?v3 )(lfinite$ (llist_of_tllist$c ?v2 )))(fun_app$f (fun_app$k ?v1 (terminal$c ?v2 ))(terminal$a ?v3 )))):named a36 ))
(assert (! (forall ((?v0 A_b_bool_fun_fun$ )(?v1 A_a_bool_fun_fun$ )(?v2 A_a_tllist$ )(?v3 B_a_tllist$ ))(=> (and (tllist_all2$h ?v0 ?v1 ?v2 ?v3 )(lfinite$ (llist_of_tllist$c ?v2 )))(fun_app$h (fun_app$i ?v1 (terminal$c ?v2 ))(terminal$b ?v3 )))):named a37 ))
(assert (! (forall ((?v0 A_a_bool_fun_fun$ )(?v1 B_a_bool_fun_fun$ )(?v2 A_b_tllist$ )(?v3 A_a_tllist$ ))(=> (and (tllist_all2$i ?v0 ?v1 ?v2 ?v3 )(lfinite$ (llist_of_tllist$ ?v2 )))(fun_app$h (fun_app$j ?v1 (terminal$ ?v2 ))(terminal$c ?v3 )))):named a38 ))
(assert (! (forall ((?v0 A_a_bool_fun_fun$ )(?v1 A_b_bool_fun_fun$ )(?v2 A_a_tllist$ )(?v3 A_b_tllist$ ))(=> (and (tllist_all2$j ?v0 ?v1 ?v2 ?v3 )(lfinite$ (llist_of_tllist$c ?v2 )))(fun_app$f (fun_app$k ?v1 (terminal$c ?v2 ))(terminal$ ?v3 )))):named a39 ))
(assert (! (forall ((?v0 A_a_bool_fun_fun$ )(?v1 A_a_bool_fun_fun$ )(?v2 A_a_tllist$ )(?v3 A_a_tllist$ ))(=> (and (fun_app$d (fun_app$e (tllist_all2$c ?v0 ?v1 )?v2 )?v3 )(lfinite$ (llist_of_tllist$c ?v2 )))(fun_app$h (fun_app$i ?v1 (terminal$c ?v2 ))(terminal$c ?v3 )))):named a40 ))
(assert (! (forall ((?v0 A_a_bool_fun_fun$ )(?v1 B_b_bool_fun_fun$ )(?v2 A_b_tllist$ )(?v3 A_b_tllist$ ))(=> (and (fun_app$b (fun_app$c (tllist_all2$ ?v0 ?v1 )?v2 )?v3 )(lfinite$ (llist_of_tllist$ ?v2 )))(fun_app$f (fun_app$g ?v1 (terminal$ ?v2 ))(terminal$ ?v3 )))):named a41 ))
(assert (! (forall ((?v0 B_a_bool_fun_fun$ )(?v1 A_a_bool_fun_fun$ )(?v2 B_a_tllist$ )(?v3 A_a_tllist$ ))(=> (tllist_all2$d ?v0 ?v1 ?v2 ?v3 )(= (lfinite$a (llist_of_tllist$b ?v2 ))(lfinite$ (llist_of_tllist$c ?v3 ))))):named a42 ))
(assert (! (forall ((?v0 A_b_bool_fun_fun$ )(?v1 B_b_bool_fun_fun$ )(?v2 A_b_tllist$ )(?v3 B_b_tllist$ ))(=> (tllist_all2$e ?v0 ?v1 ?v2 ?v3 )(= (lfinite$ (llist_of_tllist$ ?v2 ))(lfinite$a (llist_of_tllist$a ?v3 ))))):named a43 ))
(assert (! (forall ((?v0 A_b_bool_fun_fun$ )(?v1 B_a_bool_fun_fun$ )(?v2 A_b_tllist$ )(?v3 B_a_tllist$ ))(=> (tllist_all2$f ?v0 ?v1 ?v2 ?v3 )(= (lfinite$ (llist_of_tllist$ ?v2 ))(lfinite$a (llist_of_tllist$b ?v3 ))))):named a44 ))
(assert (! (forall ((?v0 A_b_bool_fun_fun$ )(?v1 A_b_bool_fun_fun$ )(?v2 A_a_tllist$ )(?v3 B_b_tllist$ ))(=> (tllist_all2$g ?v0 ?v1 ?v2 ?v3 )(= (lfinite$ (llist_of_tllist$c ?v2 ))(lfinite$a (llist_of_tllist$a ?v3 ))))):named a45 ))
(assert (! (forall ((?v0 A_b_bool_fun_fun$ )(?v1 A_a_bool_fun_fun$ )(?v2 A_a_tllist$ )(?v3 B_a_tllist$ ))(=> (tllist_all2$h ?v0 ?v1 ?v2 ?v3 )(= (lfinite$ (llist_of_tllist$c ?v2 ))(lfinite$a (llist_of_tllist$b ?v3 ))))):named a46 ))
(assert (! (forall ((?v0 A_a_bool_fun_fun$ )(?v1 B_a_bool_fun_fun$ )(?v2 A_b_tllist$ )(?v3 A_a_tllist$ ))(=> (tllist_all2$i ?v0 ?v1 ?v2 ?v3 )(= (lfinite$ (llist_of_tllist$ ?v2 ))(lfinite$ (llist_of_tllist$c ?v3 ))))):named a47 ))
(assert (! (forall ((?v0 A_a_bool_fun_fun$ )(?v1 A_b_bool_fun_fun$ )(?v2 A_a_tllist$ )(?v3 A_b_tllist$ ))(=> (tllist_all2$j ?v0 ?v1 ?v2 ?v3 )(= (lfinite$ (llist_of_tllist$c ?v2 ))(lfinite$ (llist_of_tllist$ ?v3 ))))):named a48 ))
(assert (! (forall ((?v0 A_a_bool_fun_fun$ )(?v1 A_a_bool_fun_fun$ )(?v2 A_a_tllist$ )(?v3 A_a_tllist$ ))(=> (fun_app$d (fun_app$e (tllist_all2$c ?v0 ?v1 )?v2 )?v3 )(= (lfinite$ (llist_of_tllist$c ?v2 ))(lfinite$ (llist_of_tllist$c ?v3 ))))):named a49 ))
(assert (! (forall ((?v0 A_a_bool_fun_fun$ )(?v1 B_b_bool_fun_fun$ )(?v2 A_b_tllist$ )(?v3 A_b_tllist$ ))(=> (fun_app$b (fun_app$c (tllist_all2$ ?v0 ?v1 )?v2 )?v3 )(= (lfinite$ (llist_of_tllist$ ?v2 ))(lfinite$ (llist_of_tllist$ ?v3 ))))):named a50 ))
(assert (! (forall ((?v0 A_llist$ )(?v1 A_a_tllist$ ))(=> (lfinite$ ?v0 )(= (terminal$c (lappendt$ ?v0 ?v1 ))(terminal$c ?v1 )))):named a51 ))
(assert (! (forall ((?v0 A_llist$ )(?v1 A_b_tllist$ ))(=> (lfinite$ ?v0 )(= (terminal$ (lappendt$a ?v0 ?v1 ))(terminal$ ?v1 )))):named a52 ))
(assert (! (forall ((?v0 A_b_tllist$ )(?v1 B_a_a_tllist_fun$ ))(= (lfinite$ (llist_of_tllist$c (tappend$ ?v0 ?v1 )))(and (lfinite$ (llist_of_tllist$ ?v0 ))(lfinite$ (llist_of_tllist$c (fun_app$l ?v1 (terminal$ ?v0 ))))))):named a53 ))
(assert (! (forall ((?v0 A_a_tllist$ )(?v1 A_a_b_tllist_fun$ ))(= (lfinite$ (llist_of_tllist$ (tappend$a ?v0 ?v1 )))(and (lfinite$ (llist_of_tllist$c ?v0 ))(lfinite$ (llist_of_tllist$ (fun_app$m ?v1 (terminal$c ?v0 ))))))):named a54 ))
(assert (! (forall ((?v0 A_a_tllist$ )(?v1 A_a_a_tllist_fun$ ))(= (lfinite$ (llist_of_tllist$c (tappend$b ?v0 ?v1 )))(and (lfinite$ (llist_of_tllist$c ?v0 ))(lfinite$ (llist_of_tllist$c (fun_app$n ?v1 (terminal$c ?v0 ))))))):named a55 ))
(assert (! (forall ((?v0 A_b_tllist$ )(?v1 B_a_b_tllist_fun$ ))(= (lfinite$ (llist_of_tllist$ (tappend$c ?v0 ?v1 )))(and (lfinite$ (llist_of_tllist$ ?v0 ))(lfinite$ (llist_of_tllist$ (fun_app$o ?v1 (terminal$ ?v0 ))))))):named a56 ))
(assert (! (forall ((?v0 A_a_tllist$ )(?v1 A_a_a_tllist_fun$ ))(= (terminal$c (tappend$b ?v0 ?v1 ))(ite (lfinite$ (llist_of_tllist$c ?v0 ))(terminal$c (fun_app$n ?v1 (terminal$c ?v0 )))(terminal$c ?v0 )))):named a57 ))
(assert (! (forall ((?v0 A_b_tllist$ )(?v1 B_a_b_tllist_fun$ ))(= (terminal$ (tappend$c ?v0 ?v1 ))(ite (lfinite$ (llist_of_tllist$ ?v0 ))(terminal$ (fun_app$o ?v1 (terminal$ ?v0 )))(terminal$ ?v0 )))):named a58 ))
(assert (! (forall ((?v0 A_a_tllist$ )(?v1 A_a_fun$ )(?v2 A_b_fun$ ))(=> (lfinite$ (llist_of_tllist$c ?v0 ))(= (terminal$ (tmap$ ?v1 ?v2 ?v0 ))(fun_app$p ?v2 (terminal$c ?v0 ))))):named a59 ))
(assert (! (forall ((?v0 A_b_tllist$ )(?v1 A_a_fun$ )(?v2 B_a_fun$ ))(=> (lfinite$ (llist_of_tllist$ ?v0 ))(= (terminal$c (tmap$a ?v1 ?v2 ?v0 ))(fun_app$q ?v2 (terminal$ ?v0 ))))):named a60 ))
(assert (! (forall ((?v0 A_a_tllist$ )(?v1 A_a_fun$ )(?v2 A_a_fun$ ))(=> (lfinite$ (llist_of_tllist$c ?v0 ))(= (terminal$c (tmap$b ?v1 ?v2 ?v0 ))(fun_app$r ?v2 (terminal$c ?v0 ))))):named a61 ))
(assert (! (forall ((?v0 A_b_tllist$ )(?v1 A_a_fun$ )(?v2 B_b_fun$ ))(=> (lfinite$ (llist_of_tllist$ ?v0 ))(= (terminal$ (tmap$c ?v1 ?v2 ?v0 ))(fun_app$s ?v2 (terminal$ ?v0 ))))):named a62 ))
(assert (! (= terminal0$ uud$ ):named a63 ))
(assert (! (= terminal0$a uue$ ):named a64 ))
(assert (! (forall ((?v0 A_a_tllist$ ))(! (=> (not (lfinite$ (llist_of_tllist$c ?v0 )))(= (terminal$c ?v0 )undefined$ )):pattern ((terminal$c ?v0 )))):named a65 ))
(assert (! (forall ((?v0 A_b_tllist$ ))(! (=> (not (lfinite$ (llist_of_tllist$ ?v0 )))(= (terminal$ ?v0 )undefined$a )):pattern ((terminal$ ?v0 )))):named a66 ))
(assert (! (forall ((?v0 A_a_bool_fun_fun$ )(?v1 A_a_bool_fun_fun$ )(?v2 A_a_tllist$ )(?v3 A_a_tllist$ )(?v4 A_a_bool_fun_fun$ )(?v5 A_a_bool_fun_fun$ ))(=> (and (fun_app$d (fun_app$e (tllist_all2$c ?v0 ?v1 )?v2 )?v3 )(and (forall ((?v6 A$ )(?v7 A$ ))(=> (and (member$ ?v6 (tset$c ?v2 ))(and (member$ ?v7 (tset$c ?v3 ))(fun_app$h (fun_app$i ?v0 ?v6 )?v7 )))(fun_app$h (fun_app$i ?v4 ?v6 )?v7 )))(forall ((?v6 A$ )(?v7 A$ ))(=> (and (member$ ?v6 (set2_tllist$ ?v2 ))(and (member$ ?v7 (set2_tllist$ ?v3 ))(fun_app$h (fun_app$i ?v1 ?v6 )?v7 )))(fun_app$h (fun_app$i ?v5 ?v6 )?v7 )))))(fun_app$d (fun_app$e (tllist_all2$c ?v4 ?v5 )?v2 )?v3 ))):named a67 ))
(assert (! (forall ((?v0 A_a_bool_fun_fun$ )(?v1 A_b_bool_fun_fun$ )(?v2 A_a_tllist$ )(?v3 A_b_tllist$ )(?v4 A_a_bool_fun_fun$ )(?v5 A_b_bool_fun_fun$ ))(=> (and (tllist_all2$j ?v0 ?v1 ?v2 ?v3 )(and (forall ((?v6 A$ )(?v7 A$ ))(=> (and (member$ ?v6 (tset$c ?v2 ))(and (member$ ?v7 (tset$ ?v3 ))(fun_app$h (fun_app$i ?v0 ?v6 )?v7 )))(fun_app$h (fun_app$i ?v4 ?v6 )?v7 )))(forall ((?v6 A$ )(?v7 B$ ))(=> (and (member$ ?v6 (set2_tllist$ ?v2 ))(and (member$a ?v7 (set2_tllist$a ?v3 ))(fun_app$f (fun_app$k ?v1 ?v6 )?v7 )))(fun_app$f (fun_app$k ?v5 ?v6 )?v7 )))))(tllist_all2$j ?v4 ?v5 ?v2 ?v3 ))):named a68 ))
(assert (! (forall ((?v0 A_a_bool_fun_fun$ )(?v1 B_a_bool_fun_fun$ )(?v2 A_b_tllist$ )(?v3 A_a_tllist$ )(?v4 A_a_bool_fun_fun$ )(?v5 B_a_bool_fun_fun$ ))(=> (and (tllist_all2$i ?v0 ?v1 ?v2 ?v3 )(and (forall ((?v6 A$ )(?v7 A$ ))(=> (and (member$ ?v6 (tset$ ?v2 ))(and (member$ ?v7 (tset$c ?v3 ))(fun_app$h (fun_app$i ?v0 ?v6 )?v7 )))(fun_app$h (fun_app$i ?v4 ?v6 )?v7 )))(forall ((?v6 B$ )(?v7 A$ ))(=> (and (member$a ?v6 (set2_tllist$a ?v2 ))(and (member$ ?v7 (set2_tllist$ ?v3 ))(fun_app$h (fun_app$j ?v1 ?v6 )?v7 )))(fun_app$h (fun_app$j ?v5 ?v6 )?v7 )))))(tllist_all2$i ?v4 ?v5 ?v2 ?v3 ))):named a69 ))
(assert (! (forall ((?v0 A_a_bool_fun_fun$ )(?v1 B_b_bool_fun_fun$ )(?v2 A_b_tllist$ )(?v3 A_b_tllist$ )(?v4 A_a_bool_fun_fun$ )(?v5 B_b_bool_fun_fun$ ))(=> (and (fun_app$b (fun_app$c (tllist_all2$ ?v0 ?v1 )?v2 )?v3 )(and (forall ((?v6 A$ )(?v7 A$ ))(=> (and (member$ ?v6 (tset$ ?v2 ))(and (member$ ?v7 (tset$ ?v3 ))(fun_app$h (fun_app$i ?v0 ?v6 )?v7 )))(fun_app$h (fun_app$i ?v4 ?v6 )?v7 )))(forall ((?v6 B$ )(?v7 B$ ))(=> (and (member$a ?v6 (set2_tllist$a ?v2 ))(and (member$a ?v7 (set2_tllist$a ?v3 ))(fun_app$f (fun_app$g ?v1 ?v6 )?v7 )))(fun_app$f (fun_app$g ?v5 ?v6 )?v7 )))))(fun_app$b (fun_app$c (tllist_all2$ ?v4 ?v5 )?v2 )?v3 ))):named a70 ))
(assert (! (forall ((?v0 B_b_bool_fun_fun$ )(?v1 A_a_bool_fun_fun$ )(?v2 B_a_tllist$ )(?v3 B_a_tllist$ )(?v4 B_b_bool_fun_fun$ )(?v5 A_a_bool_fun_fun$ ))(=> (and (tllist_all2$b ?v0 ?v1 ?v2 ?v3 )(and (forall ((?v6 B$ )(?v7 B$ ))(=> (and (member$a ?v6 (tset$b ?v2 ))(and (member$a ?v7 (tset$b ?v3 ))(fun_app$f (fun_app$g ?v0 ?v6 )?v7 )))(fun_app$f (fun_app$g ?v4 ?v6 )?v7 )))(forall ((?v6 A$ )(?v7 A$ ))(=> (and (member$ ?v6 (set2_tllist$b ?v2 ))(and (member$ ?v7 (set2_tllist$b ?v3 ))(fun_app$h (fun_app$i ?v1 ?v6 )?v7 )))(fun_app$h (fun_app$i ?v5 ?v6 )?v7 )))))(tllist_all2$b ?v4 ?v5 ?v2 ?v3 ))):named a71 ))
(assert (! (forall ((?v0 B_b_bool_fun_fun$ )(?v1 A_b_bool_fun_fun$ )(?v2 B_a_tllist$ )(?v3 B_b_tllist$ )(?v4 B_b_bool_fun_fun$ )(?v5 A_b_bool_fun_fun$ ))(=> (and (tllist_all2$k ?v0 ?v1 ?v2 ?v3 )(and (forall ((?v6 B$ )(?v7 B$ ))(=> (and (member$a ?v6 (tset$b ?v2 ))(and (member$a ?v7 (tset$a ?v3 ))(fun_app$f (fun_app$g ?v0 ?v6 )?v7 )))(fun_app$f (fun_app$g ?v4 ?v6 )?v7 )))(forall ((?v6 A$ )(?v7 B$ ))(=> (and (member$ ?v6 (set2_tllist$b ?v2 ))(and (member$a ?v7 (set2_tllist$c ?v3 ))(fun_app$f (fun_app$k ?v1 ?v6 )?v7 )))(fun_app$f (fun_app$k ?v5 ?v6 )?v7 )))))(tllist_all2$k ?v4 ?v5 ?v2 ?v3 ))):named a72 ))
(assert (! (forall ((?v0 B_b_bool_fun_fun$ )(?v1 B_a_bool_fun_fun$ )(?v2 B_b_tllist$ )(?v3 B_a_tllist$ )(?v4 B_b_bool_fun_fun$ )(?v5 B_a_bool_fun_fun$ ))(=> (and (tllist_all2$l ?v0 ?v1 ?v2 ?v3 )(and (forall ((?v6 B$ )(?v7 B$ ))(=> (and (member$a ?v6 (tset$a ?v2 ))(and (member$a ?v7 (tset$b ?v3 ))(fun_app$f (fun_app$g ?v0 ?v6 )?v7 )))(fun_app$f (fun_app$g ?v4 ?v6 )?v7 )))(forall ((?v6 B$ )(?v7 A$ ))(=> (and (member$a ?v6 (set2_tllist$c ?v2 ))(and (member$ ?v7 (set2_tllist$b ?v3 ))(fun_app$h (fun_app$j ?v1 ?v6 )?v7 )))(fun_app$h (fun_app$j ?v5 ?v6 )?v7 )))))(tllist_all2$l ?v4 ?v5 ?v2 ?v3 ))):named a73 ))
(assert (! (forall ((?v0 B_b_bool_fun_fun$ )(?v1 B_b_bool_fun_fun$ )(?v2 B_b_tllist$ )(?v3 B_b_tllist$ )(?v4 B_b_bool_fun_fun$ )(?v5 B_b_bool_fun_fun$ ))(=> (and (tllist_all2$a ?v0 ?v1 ?v2 ?v3 )(and (forall ((?v6 B$ )(?v7 B$ ))(=> (and (member$a ?v6 (tset$a ?v2 ))(and (member$a ?v7 (tset$a ?v3 ))(fun_app$f (fun_app$g ?v0 ?v6 )?v7 )))(fun_app$f (fun_app$g ?v4 ?v6 )?v7 )))(forall ((?v6 B$ )(?v7 B$ ))(=> (and (member$a ?v6 (set2_tllist$c ?v2 ))(and (member$a ?v7 (set2_tllist$c ?v3 ))(fun_app$f (fun_app$g ?v1 ?v6 )?v7 )))(fun_app$f (fun_app$g ?v5 ?v6 )?v7 )))))(tllist_all2$a ?v4 ?v5 ?v2 ?v3 ))):named a74 ))
(assert (! (forall ((?v0 B_a_bool_fun_fun$ )(?v1 A_b_bool_fun_fun$ )(?v2 B_a_tllist$ )(?v3 A_b_tllist$ )(?v4 B_a_bool_fun_fun$ )(?v5 A_b_bool_fun_fun$ ))(=> (and (tllist_all2$m ?v0 ?v1 ?v2 ?v3 )(and (forall ((?v6 B$ )(?v7 A$ ))(=> (and (member$a ?v6 (tset$b ?v2 ))(and (member$ ?v7 (tset$ ?v3 ))(fun_app$h (fun_app$j ?v0 ?v6 )?v7 )))(fun_app$h (fun_app$j ?v4 ?v6 )?v7 )))(forall ((?v6 A$ )(?v7 B$ ))(=> (and (member$ ?v6 (set2_tllist$b ?v2 ))(and (member$a ?v7 (set2_tllist$a ?v3 ))(fun_app$f (fun_app$k ?v1 ?v6 )?v7 )))(fun_app$f (fun_app$k ?v5 ?v6 )?v7 )))))(tllist_all2$m ?v4 ?v5 ?v2 ?v3 ))):named a75 ))
(assert (! (forall ((?v0 B_a_bool_fun_fun$ )(?v1 B_b_bool_fun_fun$ )(?v2 B_b_tllist$ )(?v3 A_b_tllist$ )(?v4 B_a_bool_fun_fun$ )(?v5 B_b_bool_fun_fun$ ))(=> (and (tllist_all2$n ?v0 ?v1 ?v2 ?v3 )(and (forall ((?v6 B$ )(?v7 A$ ))(=> (and (member$a ?v6 (tset$a ?v2 ))(and (member$ ?v7 (tset$ ?v3 ))(fun_app$h (fun_app$j ?v0 ?v6 )?v7 )))(fun_app$h (fun_app$j ?v4 ?v6 )?v7 )))(forall ((?v6 B$ )(?v7 B$ ))(=> (and (member$a ?v6 (set2_tllist$c ?v2 ))(and (member$a ?v7 (set2_tllist$a ?v3 ))(fun_app$f (fun_app$g ?v1 ?v6 )?v7 )))(fun_app$f (fun_app$g ?v5 ?v6 )?v7 )))))(tllist_all2$n ?v4 ?v5 ?v2 ?v3 ))):named a76 ))
(assert (! (forall ((?v0 A_a_tllist$ ))(= (tllist_of_llist$ (terminal$c ?v0 )(llist_of_tllist$c ?v0 ))?v0 )):named a77 ))
(assert (! (forall ((?v0 A_b_tllist$ ))(= (tllist_of_llist$a (terminal$ ?v0 )(llist_of_tllist$ ?v0 ))?v0 )):named a78 ))
(assert (! (forall ((?v0 B_a_bool_fun_fun$ )(?v1 A_a_bool_fun_fun$ )(?v2 B_a_tllist$ )(?v3 A_a_tllist$ ))(=> (tllist_all2$d ?v0 ?v1 ?v2 ?v3 )(= (tlength$ ?v2 )(tlength$a ?v3 )))):named a79 ))
(assert (! (forall ((?v0 A_b_bool_fun_fun$ )(?v1 B_b_bool_fun_fun$ )(?v2 A_b_tllist$ )(?v3 B_b_tllist$ ))(=> (tllist_all2$e ?v0 ?v1 ?v2 ?v3 )(= (tlength$b ?v2 )(tlength$c ?v3 )))):named a80 ))
(assert (! (forall ((?v0 A_b_bool_fun_fun$ )(?v1 B_a_bool_fun_fun$ )(?v2 A_b_tllist$ )(?v3 B_a_tllist$ ))(=> (tllist_all2$f ?v0 ?v1 ?v2 ?v3 )(= (tlength$b ?v2 )(tlength$ ?v3 )))):named a81 ))
(assert (! (forall ((?v0 A_b_bool_fun_fun$ )(?v1 A_b_bool_fun_fun$ )(?v2 A_a_tllist$ )(?v3 B_b_tllist$ ))(=> (tllist_all2$g ?v0 ?v1 ?v2 ?v3 )(= (tlength$a ?v2 )(tlength$c ?v3 )))):named a82 ))
(assert (! (forall ((?v0 A_b_bool_fun_fun$ )(?v1 A_a_bool_fun_fun$ )(?v2 A_a_tllist$ )(?v3 B_a_tllist$ ))(=> (tllist_all2$h ?v0 ?v1 ?v2 ?v3 )(= (tlength$a ?v2 )(tlength$ ?v3 )))):named a83 ))
(assert (! (forall ((?v0 A_a_bool_fun_fun$ )(?v1 B_a_bool_fun_fun$ )(?v2 A_b_tllist$ )(?v3 A_a_tllist$ ))(=> (tllist_all2$i ?v0 ?v1 ?v2 ?v3 )(= (tlength$b ?v2 )(tlength$a ?v3 )))):named a84 ))
(assert (! (forall ((?v0 A_a_bool_fun_fun$ )(?v1 A_b_bool_fun_fun$ )(?v2 A_a_tllist$ )(?v3 A_b_tllist$ ))(=> (tllist_all2$j ?v0 ?v1 ?v2 ?v3 )(= (tlength$a ?v2 )(tlength$b ?v3 )))):named a85 ))
(assert (! (forall ((?v0 A_a_bool_fun_fun$ )(?v1 A_a_bool_fun_fun$ )(?v2 A_a_tllist$ )(?v3 A_a_tllist$ ))(=> (fun_app$d (fun_app$e (tllist_all2$c ?v0 ?v1 )?v2 )?v3 )(= (tlength$a ?v2 )(tlength$a ?v3 )))):named a86 ))
(assert (! (forall ((?v0 A_a_bool_fun_fun$ )(?v1 B_b_bool_fun_fun$ )(?v2 A_b_tllist$ )(?v3 A_b_tllist$ ))(=> (fun_app$b (fun_app$c (tllist_all2$ ?v0 ?v1 )?v2 )?v3 )(= (tlength$b ?v2 )(tlength$b ?v3 )))):named a87 ))
(assert (! (forall ((?v0 A_llist$ )(?v1 A$ ))(=> (lfinite$ ?v0 )(= (terminal$c (tllist_of_llist$ ?v1 ?v0 ))?v1 ))):named a88 ))
(assert (! (forall ((?v0 A_llist$ )(?v1 B$ ))(=> (lfinite$ ?v0 )(= (terminal$ (tllist_of_llist$a ?v1 ?v0 ))?v1 ))):named a89 ))
(assert (! (forall ((?v0 B_b_tllist$ ))(= (lset$ (llist_of_tllist$a ?v0 ))(tset$a ?v0 ))):named a90 ))
(assert (! (forall ((?v0 B_a_tllist$ ))(= (lset$ (llist_of_tllist$b ?v0 ))(tset$b ?v0 ))):named a91 ))
(assert (! (forall ((?v0 A_a_tllist$ ))(= (lset$a (llist_of_tllist$c ?v0 ))(tset$c ?v0 ))):named a92 ))
(assert (! (forall ((?v0 A_b_tllist$ ))(= (lset$a (llist_of_tllist$ ?v0 ))(tset$ ?v0 ))):named a93 ))
(check-sat )
;(get-unsat-core )
